
Gurobi 7.0.2 (win64, Java) logging started 06/22/17 00:46:22


Gurobi 7.0.2 (win64, Java) logging started 06/22/17 00:51:56


Gurobi 7.0.2 (win64, Java) logging started 06/22/17 00:58:21


Gurobi 7.0.2 (win64, Java) logging started 06/22/17 01:01:42


Gurobi 7.0.2 (win64, Java) logging started 06/22/17 01:03:13


Gurobi 7.0.2 (win64, Java) logging started 06/22/17 01:07:44


Gurobi 7.0.2 (win64, Java) logging started 06/22/17 01:12:57


Gurobi 7.0.2 (win64, Java) logging started 06/22/17 01:16:46


Gurobi 7.0.2 (win64, Java) logging started 06/22/17 01:19:09


Gurobi 7.0.2 (win64, Java) logging started 06/22/17 01:23:11


Gurobi 7.0.2 (win64, Java) logging started 06/22/17 01:42:57

